benchmarks_vrp/CMT5/no_cluster/CMT5_7.vrp
NAME: CMT5_7
TYPE: CVRP
COMMENT: 1291.29 - Cluster Nr.7
DIMENSION: 14
CAPACITY: 200
EDGE_WEIGHT_TYPE: EUC_2D
NODE_COORD_TYPE: TWOD_COORDS
NODE_COORD_SECTION: 
9 32 39
12 41 37
13 37 47
2 30 48
3 35 40
7 38 46
11 35 51
14 42 41
6 27 43
4 35 35
5 31 32
8 33 44
1 41 46
10 33 34
DEPOT_SECTION: 
4
-1
DEMAND_SECTION: 
1 18
12 16
2 15
9 5
6 9
8 20
3 16
7 12
14 19
10 19
5 29
13 6
4 0
11 16
EOF
