benchmarks_vrp/CMT5/no_cluster/CMT5_7.tour
NAME: CMT5_7 solution
TYPE: TOUR
TOUR_SECTION:
4 10 5 9 3 8 6 2 11 13 7 1 14 12 -1
-1
EOF